
  12    4
  10   10   10   10

   0   0   0   0   0   6 2 3 4 5 6 11 
   3  10  10  10  10   3 10 9 8 
   3  10  10  10  10   3 10 9 7 
   6  10  10  10  10   1 8 
   9  10  10  10  10   1 7 
   2  10  10  10  10   1 7 
   3  10  10  10  10   1 12
  10  10  10  10  10   1 12
   1  10  10  10  10   1 12
   9  10  10  10  10   1 12
   4  10  10  10  10   1 12
   0   0   0   0   0   0 
